
set T :=
0
1
2
3
4
5
6
7
8
9
10
11
12
13
14
15
16
17
18
19
20
21
22
23
24
25
26
27
28
29
30
31
32
33
34
35
36
37
38
39
40
41
42
43
44
45
46
47
48
49
50
51
52
53
54
55
56
57
58
59
60
61
62
63
64
65
66
67
68
69
70
71
72
73
74
75
76
77
78
79
80
81
82
83
84
85
86
87
88
89
90
91
92
93
94
95
96
97
98
99
100
101
102
103
104
105
106
107
108
109
110
111
112
113
114
115
116
117
118
119
120
;





param PIFED:= 
1	17.8
2	18.7
3	19.4
4	20.0
5	20.6
6	21.2
7	22.1
8	22.0
9	22.1
10	23.0
11	23.4
12	23.7
13	23.9
14	25.0
15	25.5
16	26.1
17	26.5
18	28.4
19	28.6
20	29.0
21	30.2
22	32.1
23	31.8
24	30.9
25	32.1
26	34.7
27	35.4
28	36.7
29	38.9
30	41.5
31	40.3
32	40.3
33	41.7
34	43.5
35	43.5
36	43.4
37	44.8
38	46.4
39	44.9
40	44.6
41	45.6
42	45.9
43	45.8
44	46.4
45	49.8
46	50.6
47	50.7
48	51.3
49	53.4
50	54.9
51	55.4
52	55.4
53	58.9
54	61.8
55	63.8
56	64.6
57	68.6
58	71.2
59	71.1
60	69.5
61	71.1
62	72.0
63	69.6
64	64.7
65	67.4
66	70.9
67	72.2
68	72.2
69	74.6
70	77.4
71	77.0
72	76.9
73	80.9
74	83.1
75	83.4
76	83.0
77	86.0
78	88.8
79	89.3
80	88.7
81	91.4
82	93.9
83	92.1
84	89.6
85	91.7
86	95.2
87	95.3
88	94.8
89	98.3
90	101.5
91	101.1
92	99.1
93	102.8
94	107.1
95	109.1
96	109.1
97	113.2
98	114.5
99	111.8
100	109.9
101	112.0
102	116.4
103	115.1
104	112.4
105	115.4
106	118.7
107	117.8
108	115.3
109	117.6
110	121.9
111	123.6
112	124.0
113	130.7
114	137.0
115	136.5
116	133.9
117	140.1
118	145.7
119	143.1
120	137.4
;